50
10620

218 919
855 882
38 569
28 253
580 980
112 611
260 878
732 624
765 666
565 483
359 14
849 321
232 351
293 894
114 940
302 429
625 881
404 303
302 358
185 75
262 221
925 394
746 781
805 209
189 563
274 364
549 44
743 960
230 884
398 266
726 620
396 413
257 738
736 485
987 276
551 458
377 921
537 651
888 917
443 804
63 893
842 665
172 535
720 624
667 568
818 372
341 445
805 936
5 857
95 893
